(declare-fun e () String)
(declare-fun b () String)
(declare-fun d () String)
(declare-fun a () String)
(declare-fun h () String)
(assert (= (str.++ "cedf" a "c") e))
(assert (= (str.++ "c" d d) (str.++ a "fdfc" h)))
(assert (= h (str.++ b e)))

(check-sat)
